experiment/data/lkh-res/Vrp-Set-Golden-n401/Vrp-Set-Golden-n401-lkh/0.lkh1.tour
NAME : 0.1090221.tour
COMMENT : Length = 1090221
COMMENT : Found by LKH-3 [Keld Helsgaun] Tue Apr  9 02:14:40 2024
TYPE : TOUR
DIMENSION : 409
TOUR_SECTION
1
23
22
21
61
101
141
142
143
144
184
183
182
222
262
302
342
382
383
343
303
263
223
224
264
304
344
384
385
345
305
265
225
185
186
187
147
146
145
105
104
103
102
62
63
64
24
406
2
3
4
5
45
85
86
87
127
126
166
167
168
208
248
288
328
368
367
327
287
247
207
206
246
286
326
366
365
325
285
245
205
165
125
124
84
44
43
42
81
41
40
404
30
31
32
33
73
113
114
154
153
193
194
195
235
275
315
355
395
394
354
314
274
234
233
273
313
353
393
392
352
312
272
232
192
152
151
150
110
111
112
72
71
70
69
29
28
27
402
37
76
116
117
157
158
198
199
200
240
280
320
360
400
359
399
398
358
318
319
279
239
238
278
277
317
357
397
396
356
316
276
236
237
197
196
156
155
115
75
74
34
405
11
10
9
8
7
6
46
47
48
88
128
129
169
209
249
289
329
369
370
330
290
250
210
211
251
291
331
371
372
332
292
252
212
172
171
170
130
90
89
49
50
51
52
12
13
408
19
18
58
57
56
96
97
98
138
139
179
178
218
217
257
258
298
297
337
377
338
378
379
339
299
259
219
220
260
300
340
380
381
341
301
261
221
181
180
140
100
99
59
60
20
409
38
39
79
80
120
121
82
83
123
163
164
204
244
284
324
364
363
323
283
243
203
202
242
282
322
362
401
361
321
281
241
201
162
122
161
160
159
119
118
78
77
36
35
407
14
54
53
93
92
91
131
132
133
173
174
214
213
253
293
333
373
374
334
294
254
255
295
335
375
376
336
296
256
216
215
175
176
177
137
136
135
134
94
95
55
15
16
17
403
25
65
66
106
107
108
148
188
228
227
226
266
306
346
386
387
347
307
267
268
308
348
388
389
349
309
269
229
230
270
310
350
390
391
351
311
271
231
191
190
189
149
109
68
67
26
-1
EOF
